<?xml version = "1.0" encoding="UTF-8" standalone="yes"?>
<CPLEXSolution version="1.2">
 <header
   problemName="KnapsackProblem.mps"
   solutionName="incumbent"
   solutionIndex="-1"
   objectiveValue="-261916"
   solutionTypeValue="3"
   solutionTypeString="primal"
   solutionStatusValue="102"
   solutionStatusString="integer optimal, tolerance"
   solutionMethodString="mip"
   primalFeasible="1"
   dualFeasible="0"
   MIPNodes="1"
   MIPIterations="9"
   writeLevel="1"/>
 <quality
   epInt="1e-05"
   epRHS="1e-06"
   maxIntInfeas="0"
   maxPrimalInfeas="0"
   maxX="261916"
   maxSlack="4630"/>
 <linearConstraints>
  <constraint name="C1" index="0" slack="0"/>
  <constraint name="C2" index="1" slack="2375"/>
  <constraint name="C3" index="2" slack="1"/>
  <constraint name="C4" index="3" slack="18"/>
  <constraint name="C5" index="4" slack="26"/>
  <constraint name="C6" index="5" slack="4630"/>
  <constraint name="C7" index="6" slack="1"/>
  <constraint name="C8" index="7" slack="0"/>
 </linearConstraints>
 <variables>
  <variable name="take-0" index="0" value="0"/>
  <variable name="take-1" index="1" value="0"/>
  <variable name="take-2" index="2" value="0"/>
  <variable name="take-3" index="3" value="151"/>
  <variable name="take-4" index="4" value="0"/>
  <variable name="take-5" index="5" value="0"/>
  <variable name="take-6" index="6" value="0"/>
  <variable name="take-7" index="7" value="913"/>
  <variable name="take-8" index="8" value="333"/>
  <variable name="take-9" index="9" value="0"/>
  <variable name="take-10" index="10" value="6502"/>
  <variable name="take-11" index="11" value="1180"/>
  <variable name="costFunc" index="12" value="261916"/>
 </variables>
</CPLEXSolution>
